certificates/rado_a15_c21_N97.cnf
c Rad2 upper bound instance: x1 + 15*x2 - x3 = 21, interval [1,97]
p cnf 97 788
1 2 10 0
-1 -2 -10 0
1 3 25 0
-1 -3 -25 0
1 4 40 0
-1 -4 -40 0
1 5 55 0
-1 -5 -55 0
1 6 70 0
-1 -6 -70 0
1 7 85 0
-1 -7 -85 0
2 11 0
-2 -11 0
2 3 26 0
-2 -3 -26 0
2 4 41 0
-2 -4 -41 0
2 5 56 0
-2 -5 -56 0
2 6 71 0
-2 -6 -71 0
2 7 86 0
-2 -7 -86 0
2 3 12 0
-2 -3 -12 0
3 27 0
-3 -27 0
3 4 42 0
-3 -4 -42 0
3 5 57 0
-3 -5 -57 0
3 6 72 0
-3 -6 -72 0
3 7 87 0
-3 -7 -87 0
2 4 13 0
-2 -4 -13 0
3 4 28 0
-3 -4 -28 0
4 43 0
-4 -43 0
4 5 58 0
-4 -5 -58 0
4 6 73 0
-4 -6 -73 0
4 7 88 0
-4 -7 -88 0
2 5 14 0
-2 -5 -14 0
3 5 29 0
-3 -5 -29 0
4 5 44 0
-4 -5 -44 0
5 59 0
-5 -59 0
5 6 74 0
-5 -6 -74 0
5 7 89 0
-5 -7 -89 0
2 6 15 0
-2 -6 -15 0
3 6 30 0
-3 -6 -30 0
4 6 45 0
-4 -6 -45 0
5 6 60 0
-5 -6 -60 0
6 75 0
-6 -75 0
6 7 90 0
-6 -7 -90 0
1 7 0
-1 -7 0
2 7 16 0
-2 -7 -16 0
3 7 31 0
-3 -7 -31 0
4 7 46 0
-4 -7 -46 0
5 7 61 0
-5 -7 -61 0
6 7 76 0
-6 -7 -76 0
7 91 0
-7 -91 0
1 2 8 0
-1 -2 -8 0
2 8 17 0
-2 -8 -17 0
3 8 32 0
-3 -8 -32 0
4 8 47 0
-4 -8 -47 0
5 8 62 0
-5 -8 -62 0
6 8 77 0
-6 -8 -77 0
7 8 92 0
-7 -8 -92 0
1 3 9 0
-1 -3 -9 0
2 9 18 0
-2 -9 -18 0
3 9 33 0
-3 -9 -33 0
4 9 48 0
-4 -9 -48 0
5 9 63 0
-5 -9 -63 0
6 9 78 0
-6 -9 -78 0
7 9 93 0
-7 -9 -93 0
1 4 10 0
-1 -4 -10 0
2 10 19 0
-2 -10 -19 0
3 10 34 0
-3 -10 -34 0
4 10 49 0
-4 -10 -49 0
5 10 64 0
-5 -10 -64 0
6 10 79 0
-6 -10 -79 0
7 10 94 0
-7 -10 -94 0
1 5 11 0
-1 -5 -11 0
2 11 20 0
-2 -11 -20 0
3 11 35 0
-3 -11 -35 0
4 11 50 0
-4 -11 -50 0
5 11 65 0
-5 -11 -65 0
6 11 80 0
-6 -11 -80 0
7 11 95 0
-7 -11 -95 0
1 6 12 0
-1 -6 -12 0
2 12 21 0
-2 -12 -21 0
3 12 36 0
-3 -12 -36 0
4 12 51 0
-4 -12 -51 0
5 12 66 0
-5 -12 -66 0
6 12 81 0
-6 -12 -81 0
7 12 96 0
-7 -12 -96 0
1 7 13 0
-1 -7 -13 0
2 13 22 0
-2 -13 -22 0
3 13 37 0
-3 -13 -37 0
4 13 52 0
-4 -13 -52 0
5 13 67 0
-5 -13 -67 0
6 13 82 0
-6 -13 -82 0
7 13 97 0
-7 -13 -97 0
1 8 14 0
-1 -8 -14 0
2 14 23 0
-2 -14 -23 0
3 14 38 0
-3 -14 -38 0
4 14 53 0
-4 -14 -53 0
5 14 68 0
-5 -14 -68 0
6 14 83 0
-6 -14 -83 0
1 9 15 0
-1 -9 -15 0
2 15 24 0
-2 -15 -24 0
3 15 39 0
-3 -15 -39 0
4 15 54 0
-4 -15 -54 0
5 15 69 0
-5 -15 -69 0
6 15 84 0
-6 -15 -84 0
1 10 16 0
-1 -10 -16 0
2 16 25 0
-2 -16 -25 0
3 16 40 0
-3 -16 -40 0
4 16 55 0
-4 -16 -55 0
5 16 70 0
-5 -16 -70 0
6 16 85 0
-6 -16 -85 0
1 11 17 0
-1 -11 -17 0
2 17 26 0
-2 -17 -26 0
3 17 41 0
-3 -17 -41 0
4 17 56 0
-4 -17 -56 0
5 17 71 0
-5 -17 -71 0
6 17 86 0
-6 -17 -86 0
1 12 18 0
-1 -12 -18 0
2 18 27 0
-2 -18 -27 0
3 18 42 0
-3 -18 -42 0
4 18 57 0
-4 -18 -57 0
5 18 72 0
-5 -18 -72 0
6 18 87 0
-6 -18 -87 0
1 13 19 0
-1 -13 -19 0
2 19 28 0
-2 -19 -28 0
3 19 43 0
-3 -19 -43 0
4 19 58 0
-4 -19 -58 0
5 19 73 0
-5 -19 -73 0
6 19 88 0
-6 -19 -88 0
1 14 20 0
-1 -14 -20 0
2 20 29 0
-2 -20 -29 0
3 20 44 0
-3 -20 -44 0
4 20 59 0
-4 -20 -59 0
5 20 74 0
-5 -20 -74 0
6 20 89 0
-6 -20 -89 0
1 15 21 0
-1 -15 -21 0
2 21 30 0
-2 -21 -30 0
3 21 45 0
-3 -21 -45 0
4 21 60 0
-4 -21 -60 0
5 21 75 0
-5 -21 -75 0
6 21 90 0
-6 -21 -90 0
1 16 22 0
-1 -16 -22 0
2 22 31 0
-2 -22 -31 0
3 22 46 0
-3 -22 -46 0
4 22 61 0
-4 -22 -61 0
5 22 76 0
-5 -22 -76 0
6 22 91 0
-6 -22 -91 0
1 17 23 0
-1 -17 -23 0
2 23 32 0
-2 -23 -32 0
3 23 47 0
-3 -23 -47 0
4 23 62 0
-4 -23 -62 0
5 23 77 0
-5 -23 -77 0
6 23 92 0
-6 -23 -92 0
1 18 24 0
-1 -18 -24 0
2 24 33 0
-2 -24 -33 0
3 24 48 0
-3 -24 -48 0
4 24 63 0
-4 -24 -63 0
5 24 78 0
-5 -24 -78 0
6 24 93 0
-6 -24 -93 0
1 19 25 0
-1 -19 -25 0
2 25 34 0
-2 -25 -34 0
3 25 49 0
-3 -25 -49 0
4 25 64 0
-4 -25 -64 0
5 25 79 0
-5 -25 -79 0
6 25 94 0
-6 -25 -94 0
1 20 26 0
-1 -20 -26 0
2 26 35 0
-2 -26 -35 0
3 26 50 0
-3 -26 -50 0
4 26 65 0
-4 -26 -65 0
5 26 80 0
-5 -26 -80 0
6 26 95 0
-6 -26 -95 0
1 21 27 0
-1 -21 -27 0
2 27 36 0
-2 -27 -36 0
3 27 51 0
-3 -27 -51 0
4 27 66 0
-4 -27 -66 0
5 27 81 0
-5 -27 -81 0
6 27 96 0
-6 -27 -96 0
1 22 28 0
-1 -22 -28 0
2 28 37 0
-2 -28 -37 0
3 28 52 0
-3 -28 -52 0
4 28 67 0
-4 -28 -67 0
5 28 82 0
-5 -28 -82 0
6 28 97 0
-6 -28 -97 0
1 23 29 0
-1 -23 -29 0
2 29 38 0
-2 -29 -38 0
3 29 53 0
-3 -29 -53 0
4 29 68 0
-4 -29 -68 0
5 29 83 0
-5 -29 -83 0
1 24 30 0
-1 -24 -30 0
2 30 39 0
-2 -30 -39 0
3 30 54 0
-3 -30 -54 0
4 30 69 0
-4 -30 -69 0
5 30 84 0
-5 -30 -84 0
1 25 31 0
-1 -25 -31 0
2 31 40 0
-2 -31 -40 0
3 31 55 0
-3 -31 -55 0
4 31 70 0
-4 -31 -70 0
5 31 85 0
-5 -31 -85 0
1 26 32 0
-1 -26 -32 0
2 32 41 0
-2 -32 -41 0
3 32 56 0
-3 -32 -56 0
4 32 71 0
-4 -32 -71 0
5 32 86 0
-5 -32 -86 0
1 27 33 0
-1 -27 -33 0
2 33 42 0
-2 -33 -42 0
3 33 57 0
-3 -33 -57 0
4 33 72 0
-4 -33 -72 0
5 33 87 0
-5 -33 -87 0
1 28 34 0
-1 -28 -34 0
2 34 43 0
-2 -34 -43 0
3 34 58 0
-3 -34 -58 0
4 34 73 0
-4 -34 -73 0
5 34 88 0
-5 -34 -88 0
1 29 35 0
-1 -29 -35 0
2 35 44 0
-2 -35 -44 0
3 35 59 0
-3 -35 -59 0
4 35 74 0
-4 -35 -74 0
5 35 89 0
-5 -35 -89 0
1 30 36 0
-1 -30 -36 0
2 36 45 0
-2 -36 -45 0
3 36 60 0
-3 -36 -60 0
4 36 75 0
-4 -36 -75 0
5 36 90 0
-5 -36 -90 0
1 31 37 0
-1 -31 -37 0
2 37 46 0
-2 -37 -46 0
3 37 61 0
-3 -37 -61 0
4 37 76 0
-4 -37 -76 0
5 37 91 0
-5 -37 -91 0
1 32 38 0
-1 -32 -38 0
2 38 47 0
-2 -38 -47 0
3 38 62 0
-3 -38 -62 0
4 38 77 0
-4 -38 -77 0
5 38 92 0
-5 -38 -92 0
1 33 39 0
-1 -33 -39 0
2 39 48 0
-2 -39 -48 0
3 39 63 0
-3 -39 -63 0
4 39 78 0
-4 -39 -78 0
5 39 93 0
-5 -39 -93 0
1 34 40 0
-1 -34 -40 0
2 40 49 0
-2 -40 -49 0
3 40 64 0
-3 -40 -64 0
4 40 79 0
-4 -40 -79 0
5 40 94 0
-5 -40 -94 0
1 35 41 0
-1 -35 -41 0
2 41 50 0
-2 -41 -50 0
3 41 65 0
-3 -41 -65 0
4 41 80 0
-4 -41 -80 0
5 41 95 0
-5 -41 -95 0
1 36 42 0
-1 -36 -42 0
2 42 51 0
-2 -42 -51 0
3 42 66 0
-3 -42 -66 0
4 42 81 0
-4 -42 -81 0
5 42 96 0
-5 -42 -96 0
1 37 43 0
-1 -37 -43 0
2 43 52 0
-2 -43 -52 0
3 43 67 0
-3 -43 -67 0
4 43 82 0
-4 -43 -82 0
5 43 97 0
-5 -43 -97 0
1 38 44 0
-1 -38 -44 0
2 44 53 0
-2 -44 -53 0
3 44 68 0
-3 -44 -68 0
4 44 83 0
-4 -44 -83 0
1 39 45 0
-1 -39 -45 0
2 45 54 0
-2 -45 -54 0
3 45 69 0
-3 -45 -69 0
4 45 84 0
-4 -45 -84 0
1 40 46 0
-1 -40 -46 0
2 46 55 0
-2 -46 -55 0
3 46 70 0
-3 -46 -70 0
4 46 85 0
-4 -46 -85 0
1 41 47 0
-1 -41 -47 0
2 47 56 0
-2 -47 -56 0
3 47 71 0
-3 -47 -71 0
4 47 86 0
-4 -47 -86 0
1 42 48 0
-1 -42 -48 0
2 48 57 0
-2 -48 -57 0
3 48 72 0
-3 -48 -72 0
4 48 87 0
-4 -48 -87 0
1 43 49 0
-1 -43 -49 0
2 49 58 0
-2 -49 -58 0
3 49 73 0
-3 -49 -73 0
4 49 88 0
-4 -49 -88 0
1 44 50 0
-1 -44 -50 0
2 50 59 0
-2 -50 -59 0
3 50 74 0
-3 -50 -74 0
4 50 89 0
-4 -50 -89 0
1 45 51 0
-1 -45 -51 0
2 51 60 0
-2 -51 -60 0
3 51 75 0
-3 -51 -75 0
4 51 90 0
-4 -51 -90 0
1 46 52 0
-1 -46 -52 0
2 52 61 0
-2 -52 -61 0
3 52 76 0
-3 -52 -76 0
4 52 91 0
-4 -52 -91 0
1 47 53 0
-1 -47 -53 0
2 53 62 0
-2 -53 -62 0
3 53 77 0
-3 -53 -77 0
4 53 92 0
-4 -53 -92 0
1 48 54 0
-1 -48 -54 0
2 54 63 0
-2 -54 -63 0
3 54 78 0
-3 -54 -78 0
4 54 93 0
-4 -54 -93 0
1 49 55 0
-1 -49 -55 0
2 55 64 0
-2 -55 -64 0
3 55 79 0
-3 -55 -79 0
4 55 94 0
-4 -55 -94 0
1 50 56 0
-1 -50 -56 0
2 56 65 0
-2 -56 -65 0
3 56 80 0
-3 -56 -80 0
4 56 95 0
-4 -56 -95 0
1 51 57 0
-1 -51 -57 0
2 57 66 0
-2 -57 -66 0
3 57 81 0
-3 -57 -81 0
4 57 96 0
-4 -57 -96 0
1 52 58 0
-1 -52 -58 0
2 58 67 0
-2 -58 -67 0
3 58 82 0
-3 -58 -82 0
4 58 97 0
-4 -58 -97 0
1 53 59 0
-1 -53 -59 0
2 59 68 0
-2 -59 -68 0
3 59 83 0
-3 -59 -83 0
1 54 60 0
-1 -54 -60 0
2 60 69 0
-2 -60 -69 0
3 60 84 0
-3 -60 -84 0
1 55 61 0
-1 -55 -61 0
2 61 70 0
-2 -61 -70 0
3 61 85 0
-3 -61 -85 0
1 56 62 0
-1 -56 -62 0
2 62 71 0
-2 -62 -71 0
3 62 86 0
-3 -62 -86 0
1 57 63 0
-1 -57 -63 0
2 63 72 0
-2 -63 -72 0
3 63 87 0
-3 -63 -87 0
1 58 64 0
-1 -58 -64 0
2 64 73 0
-2 -64 -73 0
3 64 88 0
-3 -64 -88 0
1 59 65 0
-1 -59 -65 0
2 65 74 0
-2 -65 -74 0
3 65 89 0
-3 -65 -89 0
1 60 66 0
-1 -60 -66 0
2 66 75 0
-2 -66 -75 0
3 66 90 0
-3 -66 -90 0
1 61 67 0
-1 -61 -67 0
2 67 76 0
-2 -67 -76 0
3 67 91 0
-3 -67 -91 0
1 62 68 0
-1 -62 -68 0
2 68 77 0
-2 -68 -77 0
3 68 92 0
-3 -68 -92 0
1 63 69 0
-1 -63 -69 0
2 69 78 0
-2 -69 -78 0
3 69 93 0
-3 -69 -93 0
1 64 70 0
-1 -64 -70 0
2 70 79 0
-2 -70 -79 0
3 70 94 0
-3 -70 -94 0
1 65 71 0
-1 -65 -71 0
2 71 80 0
-2 -71 -80 0
3 71 95 0
-3 -71 -95 0
1 66 72 0
-1 -66 -72 0
2 72 81 0
-2 -72 -81 0
3 72 96 0
-3 -72 -96 0
1 67 73 0
-1 -67 -73 0
2 73 82 0
-2 -73 -82 0
3 73 97 0
-3 -73 -97 0
1 68 74 0
-1 -68 -74 0
2 74 83 0
-2 -74 -83 0
1 69 75 0
-1 -69 -75 0
2 75 84 0
-2 -75 -84 0
1 70 76 0
-1 -70 -76 0
2 76 85 0
-2 -76 -85 0
1 71 77 0
-1 -71 -77 0
2 77 86 0
-2 -77 -86 0
1 72 78 0
-1 -72 -78 0
2 78 87 0
-2 -78 -87 0
1 73 79 0
-1 -73 -79 0
2 79 88 0
-2 -79 -88 0
1 74 80 0
-1 -74 -80 0
2 80 89 0
-2 -80 -89 0
1 75 81 0
-1 -75 -81 0
2 81 90 0
-2 -81 -90 0
1 76 82 0
-1 -76 -82 0
2 82 91 0
-2 -82 -91 0
1 77 83 0
-1 -77 -83 0
2 83 92 0
-2 -83 -92 0
1 78 84 0
-1 -78 -84 0
2 84 93 0
-2 -84 -93 0
1 79 85 0
-1 -79 -85 0
2 85 94 0
-2 -85 -94 0
1 80 86 0
-1 -80 -86 0
2 86 95 0
-2 -86 -95 0
1 81 87 0
-1 -81 -87 0
2 87 96 0
-2 -87 -96 0
1 82 88 0
-1 -82 -88 0
2 88 97 0
-2 -88 -97 0
1 83 89 0
-1 -83 -89 0
1 84 90 0
-1 -84 -90 0
1 85 91 0
-1 -85 -91 0
1 86 92 0
-1 -86 -92 0
1 87 93 0
-1 -87 -93 0
1 88 94 0
-1 -88 -94 0
1 89 95 0
-1 -89 -95 0
1 90 96 0
-1 -90 -96 0
1 91 97 0
-1 -91 -97 0
