certificates/rado_a15_c21_N97.drat
-91 -97 0
-96 -7 0
-97 0
91 0
-7 0
1 0
13 0
-85 0
-19 0
96 0
-90 0
6 0
-70 0
-75 0
-12 0
-82 0
-22 0
-27 0
3 0
-25 0
-72 0
-30 0
-9 0
-37 0
-67 0
93 0
-24 0
-87 0
-69 0
4 0
-40 0
-2 0
-43 0
-10 0
-52 0
-57 0
-54 0
-45 0
-73 0
-42 0
-28 0
49 0
31 0
11 0
86 0
16 0
0
